Route #1: 35 1 37 16 41 26 46
Route #2: 23 11 42 40 3 17
Route #3: 18 21 34 7 15 49
Route #4: 25 10 12 32 9
Route #5: 50 44 29 22 28 2
Route #6: 43 27 19 31 45
Route #7: 48 5 30 8 14
Route #8: 24 38 36 47 33
Route #9: 20 13 6 4 39
Cost 10396336.000000